small.smt2.log
V "4.6.0.0 Jan 17 2018"
R
C 3
= 0x7fe833457778
R
P 0x7fe833457778
S "model"
S "true"
C 5
R
P 0x7fe833457778
C 7
= 0x7fe8340b8808
R
P 0x7fe833457778
C 4
R
P 0x7fe8340b8808
U 2
C 327
R
P 0x7fe8340b8808
C 337
R
P 0x7fe8340b8808
S "small.smt2"
U 0
s 0
p 0
U 0
s 0
p 0
C 334
= 0x7fe8341431e8
R
P 0x7fe8340b8808
C 337
R
P 0x7fe8340b8808
P 0x7fe8341431e8
C 255
R
P 0x7fe8340b8808
C 337
R
P 0x7fe8340b8808
P 0x7fe8341431e8
C 252
= 0x7fe834140a18
R
P 0x7fe8340b8808
C 337
R
P 0x7fe8340b8808
P 0x7fe834140a18
C 207
R
P 0x7fe8340b8808
C 337
R
P 0x7fe8340b8808
P 0x7fe8341431e8
C 258
R
P 0x7fe8340b8808
C 337
R
P 0x7fe8340b8808
P 0x7fe8341431e8
C 257
R
P 0x7fe8340b8808
C 337
R
P 0x7fe8340b8808
P 0x7fe8341431e8
C 256
R
P 0x7fe8340b8808
C 337
R
P 0x7fe8340b8808
P 0x7fe8341431e8
C 9
R
P 0x7fe8340b8808
C 337
R
P 0x7fe8340b8808
C 406
= 0x7fe833464038
R
P 0x7fe8340b8808
C 337
R
P 0x7fe8340b8808
P 0x7fe833464038
C 414
R
P 0x7fe8340b8808
C 337
R
P 0x7fe8340b8808
P 0x7fe833464038
U 1
P 0x7fe8341431e8
p 1
C 426
R
P 0x7fe8340b8808
C 337
R
P 0x7fe8340b8808
P 0x7fe833464038
C 432
R
P 0x7fe8340b8808
C 337
